c *********************************
c * Circuit generated by BenCGen
c *
c * RippleCarryAdder_140_140_140_InOutT
c *
c * Ports with 1 gate(s): 1
c * Ports with 2 gate(s): 701
c * Total gates: 702
c *********************************
p cnf 982 2385
1 423 0
-1 -423 0
1 -422 0
423 -422 0
-1 -423 422 0
1 141 -425 0
-1 141 425 0
1 -141 425 0
-1 -141 -425 0
425 422 -281 0
-425 422 281 0
425 -422 281 0
-425 -422 -281 0
422 -426 0
425 -426 0
-422 -425 426 0
141 -427 0
1 -427 0
-141 -1 427 0
-426 424 0
-427 424 0
426 427 -424 0
2 142 -429 0
-2 142 429 0
2 -142 429 0
-2 -142 -429 0
429 424 -282 0
-429 424 282 0
429 -424 282 0
-429 -424 -282 0
424 -430 0
429 -430 0
-424 -429 430 0
142 -431 0
2 -431 0
-142 -2 431 0
-430 428 0
-431 428 0
430 431 -428 0
3 143 -433 0
-3 143 433 0
3 -143 433 0
-3 -143 -433 0
433 428 -283 0
-433 428 283 0
433 -428 283 0
-433 -428 -283 0
428 -434 0
433 -434 0
-428 -433 434 0
143 -435 0
3 -435 0
-143 -3 435 0
-434 432 0
-435 432 0
434 435 -432 0
4 144 -437 0
-4 144 437 0
4 -144 437 0
-4 -144 -437 0
437 432 -284 0
-437 432 284 0
437 -432 284 0
-437 -432 -284 0
432 -438 0
437 -438 0
-432 -437 438 0
144 -439 0
4 -439 0
-144 -4 439 0
-438 436 0
-439 436 0
438 439 -436 0
5 145 -441 0
-5 145 441 0
5 -145 441 0
-5 -145 -441 0
441 436 -285 0
-441 436 285 0
441 -436 285 0
-441 -436 -285 0
436 -442 0
441 -442 0
-436 -441 442 0
145 -443 0
5 -443 0
-145 -5 443 0
-442 440 0
-443 440 0
442 443 -440 0
6 146 -445 0
-6 146 445 0
6 -146 445 0
-6 -146 -445 0
445 440 -286 0
-445 440 286 0
445 -440 286 0
-445 -440 -286 0
440 -446 0
445 -446 0
-440 -445 446 0
146 -447 0
6 -447 0
-146 -6 447 0
-446 444 0
-447 444 0
446 447 -444 0
7 147 -449 0
-7 147 449 0
7 -147 449 0
-7 -147 -449 0
449 444 -287 0
-449 444 287 0
449 -444 287 0
-449 -444 -287 0
444 -450 0
449 -450 0
-444 -449 450 0
147 -451 0
7 -451 0
-147 -7 451 0
-450 448 0
-451 448 0
450 451 -448 0
8 148 -453 0
-8 148 453 0
8 -148 453 0
-8 -148 -453 0
453 448 -288 0
-453 448 288 0
453 -448 288 0
-453 -448 -288 0
448 -454 0
453 -454 0
-448 -453 454 0
148 -455 0
8 -455 0
-148 -8 455 0
-454 452 0
-455 452 0
454 455 -452 0
9 149 -457 0
-9 149 457 0
9 -149 457 0
-9 -149 -457 0
457 452 -289 0
-457 452 289 0
457 -452 289 0
-457 -452 -289 0
452 -458 0
457 -458 0
-452 -457 458 0
149 -459 0
9 -459 0
-149 -9 459 0
-458 456 0
-459 456 0
458 459 -456 0
10 150 -461 0
-10 150 461 0
10 -150 461 0
-10 -150 -461 0
461 456 -290 0
-461 456 290 0
461 -456 290 0
-461 -456 -290 0
456 -462 0
461 -462 0
-456 -461 462 0
150 -463 0
10 -463 0
-150 -10 463 0
-462 460 0
-463 460 0
462 463 -460 0
11 151 -465 0
-11 151 465 0
11 -151 465 0
-11 -151 -465 0
465 460 -291 0
-465 460 291 0
465 -460 291 0
-465 -460 -291 0
460 -466 0
465 -466 0
-460 -465 466 0
151 -467 0
11 -467 0
-151 -11 467 0
-466 464 0
-467 464 0
466 467 -464 0
12 152 -469 0
-12 152 469 0
12 -152 469 0
-12 -152 -469 0
469 464 -292 0
-469 464 292 0
469 -464 292 0
-469 -464 -292 0
464 -470 0
469 -470 0
-464 -469 470 0
152 -471 0
12 -471 0
-152 -12 471 0
-470 468 0
-471 468 0
470 471 -468 0
13 153 -473 0
-13 153 473 0
13 -153 473 0
-13 -153 -473 0
473 468 -293 0
-473 468 293 0
473 -468 293 0
-473 -468 -293 0
468 -474 0
473 -474 0
-468 -473 474 0
153 -475 0
13 -475 0
-153 -13 475 0
-474 472 0
-475 472 0
474 475 -472 0
14 154 -477 0
-14 154 477 0
14 -154 477 0
-14 -154 -477 0
477 472 -294 0
-477 472 294 0
477 -472 294 0
-477 -472 -294 0
472 -478 0
477 -478 0
-472 -477 478 0
154 -479 0
14 -479 0
-154 -14 479 0
-478 476 0
-479 476 0
478 479 -476 0
15 155 -481 0
-15 155 481 0
15 -155 481 0
-15 -155 -481 0
481 476 -295 0
-481 476 295 0
481 -476 295 0
-481 -476 -295 0
476 -482 0
481 -482 0
-476 -481 482 0
155 -483 0
15 -483 0
-155 -15 483 0
-482 480 0
-483 480 0
482 483 -480 0
16 156 -485 0
-16 156 485 0
16 -156 485 0
-16 -156 -485 0
485 480 -296 0
-485 480 296 0
485 -480 296 0
-485 -480 -296 0
480 -486 0
485 -486 0
-480 -485 486 0
156 -487 0
16 -487 0
-156 -16 487 0
-486 484 0
-487 484 0
486 487 -484 0
17 157 -489 0
-17 157 489 0
17 -157 489 0
-17 -157 -489 0
489 484 -297 0
-489 484 297 0
489 -484 297 0
-489 -484 -297 0
484 -490 0
489 -490 0
-484 -489 490 0
157 -491 0
17 -491 0
-157 -17 491 0
-490 488 0
-491 488 0
490 491 -488 0
18 158 -493 0
-18 158 493 0
18 -158 493 0
-18 -158 -493 0
493 488 -298 0
-493 488 298 0
493 -488 298 0
-493 -488 -298 0
488 -494 0
493 -494 0
-488 -493 494 0
158 -495 0
18 -495 0
-158 -18 495 0
-494 492 0
-495 492 0
494 495 -492 0
19 159 -497 0
-19 159 497 0
19 -159 497 0
-19 -159 -497 0
497 492 -299 0
-497 492 299 0
497 -492 299 0
-497 -492 -299 0
492 -498 0
497 -498 0
-492 -497 498 0
159 -499 0
19 -499 0
-159 -19 499 0
-498 496 0
-499 496 0
498 499 -496 0
20 160 -501 0
-20 160 501 0
20 -160 501 0
-20 -160 -501 0
501 496 -300 0
-501 496 300 0
501 -496 300 0
-501 -496 -300 0
496 -502 0
501 -502 0
-496 -501 502 0
160 -503 0
20 -503 0
-160 -20 503 0
-502 500 0
-503 500 0
502 503 -500 0
21 161 -505 0
-21 161 505 0
21 -161 505 0
-21 -161 -505 0
505 500 -301 0
-505 500 301 0
505 -500 301 0
-505 -500 -301 0
500 -506 0
505 -506 0
-500 -505 506 0
161 -507 0
21 -507 0
-161 -21 507 0
-506 504 0
-507 504 0
506 507 -504 0
22 162 -509 0
-22 162 509 0
22 -162 509 0
-22 -162 -509 0
509 504 -302 0
-509 504 302 0
509 -504 302 0
-509 -504 -302 0
504 -510 0
509 -510 0
-504 -509 510 0
162 -511 0
22 -511 0
-162 -22 511 0
-510 508 0
-511 508 0
510 511 -508 0
23 163 -513 0
-23 163 513 0
23 -163 513 0
-23 -163 -513 0
513 508 -303 0
-513 508 303 0
513 -508 303 0
-513 -508 -303 0
508 -514 0
513 -514 0
-508 -513 514 0
163 -515 0
23 -515 0
-163 -23 515 0
-514 512 0
-515 512 0
514 515 -512 0
24 164 -517 0
-24 164 517 0
24 -164 517 0
-24 -164 -517 0
517 512 -304 0
-517 512 304 0
517 -512 304 0
-517 -512 -304 0
512 -518 0
517 -518 0
-512 -517 518 0
164 -519 0
24 -519 0
-164 -24 519 0
-518 516 0
-519 516 0
518 519 -516 0
25 165 -521 0
-25 165 521 0
25 -165 521 0
-25 -165 -521 0
521 516 -305 0
-521 516 305 0
521 -516 305 0
-521 -516 -305 0
516 -522 0
521 -522 0
-516 -521 522 0
165 -523 0
25 -523 0
-165 -25 523 0
-522 520 0
-523 520 0
522 523 -520 0
26 166 -525 0
-26 166 525 0
26 -166 525 0
-26 -166 -525 0
525 520 -306 0
-525 520 306 0
525 -520 306 0
-525 -520 -306 0
520 -526 0
525 -526 0
-520 -525 526 0
166 -527 0
26 -527 0
-166 -26 527 0
-526 524 0
-527 524 0
526 527 -524 0
27 167 -529 0
-27 167 529 0
27 -167 529 0
-27 -167 -529 0
529 524 -307 0
-529 524 307 0
529 -524 307 0
-529 -524 -307 0
524 -530 0
529 -530 0
-524 -529 530 0
167 -531 0
27 -531 0
-167 -27 531 0
-530 528 0
-531 528 0
530 531 -528 0
28 168 -533 0
-28 168 533 0
28 -168 533 0
-28 -168 -533 0
533 528 -308 0
-533 528 308 0
533 -528 308 0
-533 -528 -308 0
528 -534 0
533 -534 0
-528 -533 534 0
168 -535 0
28 -535 0
-168 -28 535 0
-534 532 0
-535 532 0
534 535 -532 0
29 169 -537 0
-29 169 537 0
29 -169 537 0
-29 -169 -537 0
537 532 -309 0
-537 532 309 0
537 -532 309 0
-537 -532 -309 0
532 -538 0
537 -538 0
-532 -537 538 0
169 -539 0
29 -539 0
-169 -29 539 0
-538 536 0
-539 536 0
538 539 -536 0
30 170 -541 0
-30 170 541 0
30 -170 541 0
-30 -170 -541 0
541 536 -310 0
-541 536 310 0
541 -536 310 0
-541 -536 -310 0
536 -542 0
541 -542 0
-536 -541 542 0
170 -543 0
30 -543 0
-170 -30 543 0
-542 540 0
-543 540 0
542 543 -540 0
31 171 -545 0
-31 171 545 0
31 -171 545 0
-31 -171 -545 0
545 540 -311 0
-545 540 311 0
545 -540 311 0
-545 -540 -311 0
540 -546 0
545 -546 0
-540 -545 546 0
171 -547 0
31 -547 0
-171 -31 547 0
-546 544 0
-547 544 0
546 547 -544 0
32 172 -549 0
-32 172 549 0
32 -172 549 0
-32 -172 -549 0
549 544 -312 0
-549 544 312 0
549 -544 312 0
-549 -544 -312 0
544 -550 0
549 -550 0
-544 -549 550 0
172 -551 0
32 -551 0
-172 -32 551 0
-550 548 0
-551 548 0
550 551 -548 0
33 173 -553 0
-33 173 553 0
33 -173 553 0
-33 -173 -553 0
553 548 -313 0
-553 548 313 0
553 -548 313 0
-553 -548 -313 0
548 -554 0
553 -554 0
-548 -553 554 0
173 -555 0
33 -555 0
-173 -33 555 0
-554 552 0
-555 552 0
554 555 -552 0
34 174 -557 0
-34 174 557 0
34 -174 557 0
-34 -174 -557 0
557 552 -314 0
-557 552 314 0
557 -552 314 0
-557 -552 -314 0
552 -558 0
557 -558 0
-552 -557 558 0
174 -559 0
34 -559 0
-174 -34 559 0
-558 556 0
-559 556 0
558 559 -556 0
35 175 -561 0
-35 175 561 0
35 -175 561 0
-35 -175 -561 0
561 556 -315 0
-561 556 315 0
561 -556 315 0
-561 -556 -315 0
556 -562 0
561 -562 0
-556 -561 562 0
175 -563 0
35 -563 0
-175 -35 563 0
-562 560 0
-563 560 0
562 563 -560 0
36 176 -565 0
-36 176 565 0
36 -176 565 0
-36 -176 -565 0
565 560 -316 0
-565 560 316 0
565 -560 316 0
-565 -560 -316 0
560 -566 0
565 -566 0
-560 -565 566 0
176 -567 0
36 -567 0
-176 -36 567 0
-566 564 0
-567 564 0
566 567 -564 0
37 177 -569 0
-37 177 569 0
37 -177 569 0
-37 -177 -569 0
569 564 -317 0
-569 564 317 0
569 -564 317 0
-569 -564 -317 0
564 -570 0
569 -570 0
-564 -569 570 0
177 -571 0
37 -571 0
-177 -37 571 0
-570 568 0
-571 568 0
570 571 -568 0
38 178 -573 0
-38 178 573 0
38 -178 573 0
-38 -178 -573 0
573 568 -318 0
-573 568 318 0
573 -568 318 0
-573 -568 -318 0
568 -574 0
573 -574 0
-568 -573 574 0
178 -575 0
38 -575 0
-178 -38 575 0
-574 572 0
-575 572 0
574 575 -572 0
39 179 -577 0
-39 179 577 0
39 -179 577 0
-39 -179 -577 0
577 572 -319 0
-577 572 319 0
577 -572 319 0
-577 -572 -319 0
572 -578 0
577 -578 0
-572 -577 578 0
179 -579 0
39 -579 0
-179 -39 579 0
-578 576 0
-579 576 0
578 579 -576 0
40 180 -581 0
-40 180 581 0
40 -180 581 0
-40 -180 -581 0
581 576 -320 0
-581 576 320 0
581 -576 320 0
-581 -576 -320 0
576 -582 0
581 -582 0
-576 -581 582 0
180 -583 0
40 -583 0
-180 -40 583 0
-582 580 0
-583 580 0
582 583 -580 0
41 181 -585 0
-41 181 585 0
41 -181 585 0
-41 -181 -585 0
585 580 -321 0
-585 580 321 0
585 -580 321 0
-585 -580 -321 0
580 -586 0
585 -586 0
-580 -585 586 0
181 -587 0
41 -587 0
-181 -41 587 0
-586 584 0
-587 584 0
586 587 -584 0
42 182 -589 0
-42 182 589 0
42 -182 589 0
-42 -182 -589 0
589 584 -322 0
-589 584 322 0
589 -584 322 0
-589 -584 -322 0
584 -590 0
589 -590 0
-584 -589 590 0
182 -591 0
42 -591 0
-182 -42 591 0
-590 588 0
-591 588 0
590 591 -588 0
43 183 -593 0
-43 183 593 0
43 -183 593 0
-43 -183 -593 0
593 588 -323 0
-593 588 323 0
593 -588 323 0
-593 -588 -323 0
588 -594 0
593 -594 0
-588 -593 594 0
183 -595 0
43 -595 0
-183 -43 595 0
-594 592 0
-595 592 0
594 595 -592 0
44 184 -597 0
-44 184 597 0
44 -184 597 0
-44 -184 -597 0
597 592 -324 0
-597 592 324 0
597 -592 324 0
-597 -592 -324 0
592 -598 0
597 -598 0
-592 -597 598 0
184 -599 0
44 -599 0
-184 -44 599 0
-598 596 0
-599 596 0
598 599 -596 0
45 185 -601 0
-45 185 601 0
45 -185 601 0
-45 -185 -601 0
601 596 -325 0
-601 596 325 0
601 -596 325 0
-601 -596 -325 0
596 -602 0
601 -602 0
-596 -601 602 0
185 -603 0
45 -603 0
-185 -45 603 0
-602 600 0
-603 600 0
602 603 -600 0
46 186 -605 0
-46 186 605 0
46 -186 605 0
-46 -186 -605 0
605 600 -326 0
-605 600 326 0
605 -600 326 0
-605 -600 -326 0
600 -606 0
605 -606 0
-600 -605 606 0
186 -607 0
46 -607 0
-186 -46 607 0
-606 604 0
-607 604 0
606 607 -604 0
47 187 -609 0
-47 187 609 0
47 -187 609 0
-47 -187 -609 0
609 604 -327 0
-609 604 327 0
609 -604 327 0
-609 -604 -327 0
604 -610 0
609 -610 0
-604 -609 610 0
187 -611 0
47 -611 0
-187 -47 611 0
-610 608 0
-611 608 0
610 611 -608 0
48 188 -613 0
-48 188 613 0
48 -188 613 0
-48 -188 -613 0
613 608 -328 0
-613 608 328 0
613 -608 328 0
-613 -608 -328 0
608 -614 0
613 -614 0
-608 -613 614 0
188 -615 0
48 -615 0
-188 -48 615 0
-614 612 0
-615 612 0
614 615 -612 0
49 189 -617 0
-49 189 617 0
49 -189 617 0
-49 -189 -617 0
617 612 -329 0
-617 612 329 0
617 -612 329 0
-617 -612 -329 0
612 -618 0
617 -618 0
-612 -617 618 0
189 -619 0
49 -619 0
-189 -49 619 0
-618 616 0
-619 616 0
618 619 -616 0
50 190 -621 0
-50 190 621 0
50 -190 621 0
-50 -190 -621 0
621 616 -330 0
-621 616 330 0
621 -616 330 0
-621 -616 -330 0
616 -622 0
621 -622 0
-616 -621 622 0
190 -623 0
50 -623 0
-190 -50 623 0
-622 620 0
-623 620 0
622 623 -620 0
51 191 -625 0
-51 191 625 0
51 -191 625 0
-51 -191 -625 0
625 620 -331 0
-625 620 331 0
625 -620 331 0
-625 -620 -331 0
620 -626 0
625 -626 0
-620 -625 626 0
191 -627 0
51 -627 0
-191 -51 627 0
-626 624 0
-627 624 0
626 627 -624 0
52 192 -629 0
-52 192 629 0
52 -192 629 0
-52 -192 -629 0
629 624 -332 0
-629 624 332 0
629 -624 332 0
-629 -624 -332 0
624 -630 0
629 -630 0
-624 -629 630 0
192 -631 0
52 -631 0
-192 -52 631 0
-630 628 0
-631 628 0
630 631 -628 0
53 193 -633 0
-53 193 633 0
53 -193 633 0
-53 -193 -633 0
633 628 -333 0
-633 628 333 0
633 -628 333 0
-633 -628 -333 0
628 -634 0
633 -634 0
-628 -633 634 0
193 -635 0
53 -635 0
-193 -53 635 0
-634 632 0
-635 632 0
634 635 -632 0
54 194 -637 0
-54 194 637 0
54 -194 637 0
-54 -194 -637 0
637 632 -334 0
-637 632 334 0
637 -632 334 0
-637 -632 -334 0
632 -638 0
637 -638 0
-632 -637 638 0
194 -639 0
54 -639 0
-194 -54 639 0
-638 636 0
-639 636 0
638 639 -636 0
55 195 -641 0
-55 195 641 0
55 -195 641 0
-55 -195 -641 0
641 636 -335 0
-641 636 335 0
641 -636 335 0
-641 -636 -335 0
636 -642 0
641 -642 0
-636 -641 642 0
195 -643 0
55 -643 0
-195 -55 643 0
-642 640 0
-643 640 0
642 643 -640 0
56 196 -645 0
-56 196 645 0
56 -196 645 0
-56 -196 -645 0
645 640 -336 0
-645 640 336 0
645 -640 336 0
-645 -640 -336 0
640 -646 0
645 -646 0
-640 -645 646 0
196 -647 0
56 -647 0
-196 -56 647 0
-646 644 0
-647 644 0
646 647 -644 0
57 197 -649 0
-57 197 649 0
57 -197 649 0
-57 -197 -649 0
649 644 -337 0
-649 644 337 0
649 -644 337 0
-649 -644 -337 0
644 -650 0
649 -650 0
-644 -649 650 0
197 -651 0
57 -651 0
-197 -57 651 0
-650 648 0
-651 648 0
650 651 -648 0
58 198 -653 0
-58 198 653 0
58 -198 653 0
-58 -198 -653 0
653 648 -338 0
-653 648 338 0
653 -648 338 0
-653 -648 -338 0
648 -654 0
653 -654 0
-648 -653 654 0
198 -655 0
58 -655 0
-198 -58 655 0
-654 652 0
-655 652 0
654 655 -652 0
59 199 -657 0
-59 199 657 0
59 -199 657 0
-59 -199 -657 0
657 652 -339 0
-657 652 339 0
657 -652 339 0
-657 -652 -339 0
652 -658 0
657 -658 0
-652 -657 658 0
199 -659 0
59 -659 0
-199 -59 659 0
-658 656 0
-659 656 0
658 659 -656 0
60 200 -661 0
-60 200 661 0
60 -200 661 0
-60 -200 -661 0
661 656 -340 0
-661 656 340 0
661 -656 340 0
-661 -656 -340 0
656 -662 0
661 -662 0
-656 -661 662 0
200 -663 0
60 -663 0
-200 -60 663 0
-662 660 0
-663 660 0
662 663 -660 0
61 201 -665 0
-61 201 665 0
61 -201 665 0
-61 -201 -665 0
665 660 -341 0
-665 660 341 0
665 -660 341 0
-665 -660 -341 0
660 -666 0
665 -666 0
-660 -665 666 0
201 -667 0
61 -667 0
-201 -61 667 0
-666 664 0
-667 664 0
666 667 -664 0
62 202 -669 0
-62 202 669 0
62 -202 669 0
-62 -202 -669 0
669 664 -342 0
-669 664 342 0
669 -664 342 0
-669 -664 -342 0
664 -670 0
669 -670 0
-664 -669 670 0
202 -671 0
62 -671 0
-202 -62 671 0
-670 668 0
-671 668 0
670 671 -668 0
63 203 -673 0
-63 203 673 0
63 -203 673 0
-63 -203 -673 0
673 668 -343 0
-673 668 343 0
673 -668 343 0
-673 -668 -343 0
668 -674 0
673 -674 0
-668 -673 674 0
203 -675 0
63 -675 0
-203 -63 675 0
-674 672 0
-675 672 0
674 675 -672 0
64 204 -677 0
-64 204 677 0
64 -204 677 0
-64 -204 -677 0
677 672 -344 0
-677 672 344 0
677 -672 344 0
-677 -672 -344 0
672 -678 0
677 -678 0
-672 -677 678 0
204 -679 0
64 -679 0
-204 -64 679 0
-678 676 0
-679 676 0
678 679 -676 0
65 205 -681 0
-65 205 681 0
65 -205 681 0
-65 -205 -681 0
681 676 -345 0
-681 676 345 0
681 -676 345 0
-681 -676 -345 0
676 -682 0
681 -682 0
-676 -681 682 0
205 -683 0
65 -683 0
-205 -65 683 0
-682 680 0
-683 680 0
682 683 -680 0
66 206 -685 0
-66 206 685 0
66 -206 685 0
-66 -206 -685 0
685 680 -346 0
-685 680 346 0
685 -680 346 0
-685 -680 -346 0
680 -686 0
685 -686 0
-680 -685 686 0
206 -687 0
66 -687 0
-206 -66 687 0
-686 684 0
-687 684 0
686 687 -684 0
67 207 -689 0
-67 207 689 0
67 -207 689 0
-67 -207 -689 0
689 684 -347 0
-689 684 347 0
689 -684 347 0
-689 -684 -347 0
684 -690 0
689 -690 0
-684 -689 690 0
207 -691 0
67 -691 0
-207 -67 691 0
-690 688 0
-691 688 0
690 691 -688 0
68 208 -693 0
-68 208 693 0
68 -208 693 0
-68 -208 -693 0
693 688 -348 0
-693 688 348 0
693 -688 348 0
-693 -688 -348 0
688 -694 0
693 -694 0
-688 -693 694 0
208 -695 0
68 -695 0
-208 -68 695 0
-694 692 0
-695 692 0
694 695 -692 0
69 209 -697 0
-69 209 697 0
69 -209 697 0
-69 -209 -697 0
697 692 -349 0
-697 692 349 0
697 -692 349 0
-697 -692 -349 0
692 -698 0
697 -698 0
-692 -697 698 0
209 -699 0
69 -699 0
-209 -69 699 0
-698 696 0
-699 696 0
698 699 -696 0
70 210 -701 0
-70 210 701 0
70 -210 701 0
-70 -210 -701 0
701 696 -350 0
-701 696 350 0
701 -696 350 0
-701 -696 -350 0
696 -702 0
701 -702 0
-696 -701 702 0
210 -703 0
70 -703 0
-210 -70 703 0
-702 700 0
-703 700 0
702 703 -700 0
71 211 -705 0
-71 211 705 0
71 -211 705 0
-71 -211 -705 0
705 700 -351 0
-705 700 351 0
705 -700 351 0
-705 -700 -351 0
700 -706 0
705 -706 0
-700 -705 706 0
211 -707 0
71 -707 0
-211 -71 707 0
-706 704 0
-707 704 0
706 707 -704 0
72 212 -709 0
-72 212 709 0
72 -212 709 0
-72 -212 -709 0
709 704 -352 0
-709 704 352 0
709 -704 352 0
-709 -704 -352 0
704 -710 0
709 -710 0
-704 -709 710 0
212 -711 0
72 -711 0
-212 -72 711 0
-710 708 0
-711 708 0
710 711 -708 0
73 213 -713 0
-73 213 713 0
73 -213 713 0
-73 -213 -713 0
713 708 -353 0
-713 708 353 0
713 -708 353 0
-713 -708 -353 0
708 -714 0
713 -714 0
-708 -713 714 0
213 -715 0
73 -715 0
-213 -73 715 0
-714 712 0
-715 712 0
714 715 -712 0
74 214 -717 0
-74 214 717 0
74 -214 717 0
-74 -214 -717 0
717 712 -354 0
-717 712 354 0
717 -712 354 0
-717 -712 -354 0
712 -718 0
717 -718 0
-712 -717 718 0
214 -719 0
74 -719 0
-214 -74 719 0
-718 716 0
-719 716 0
718 719 -716 0
75 215 -721 0
-75 215 721 0
75 -215 721 0
-75 -215 -721 0
721 716 -355 0
-721 716 355 0
721 -716 355 0
-721 -716 -355 0
716 -722 0
721 -722 0
-716 -721 722 0
215 -723 0
75 -723 0
-215 -75 723 0
-722 720 0
-723 720 0
722 723 -720 0
76 216 -725 0
-76 216 725 0
76 -216 725 0
-76 -216 -725 0
725 720 -356 0
-725 720 356 0
725 -720 356 0
-725 -720 -356 0
720 -726 0
725 -726 0
-720 -725 726 0
216 -727 0
76 -727 0
-216 -76 727 0
-726 724 0
-727 724 0
726 727 -724 0
77 217 -729 0
-77 217 729 0
77 -217 729 0
-77 -217 -729 0
729 724 -357 0
-729 724 357 0
729 -724 357 0
-729 -724 -357 0
724 -730 0
729 -730 0
-724 -729 730 0
217 -731 0
77 -731 0
-217 -77 731 0
-730 728 0
-731 728 0
730 731 -728 0
78 218 -733 0
-78 218 733 0
78 -218 733 0
-78 -218 -733 0
733 728 -358 0
-733 728 358 0
733 -728 358 0
-733 -728 -358 0
728 -734 0
733 -734 0
-728 -733 734 0
218 -735 0
78 -735 0
-218 -78 735 0
-734 732 0
-735 732 0
734 735 -732 0
79 219 -737 0
-79 219 737 0
79 -219 737 0
-79 -219 -737 0
737 732 -359 0
-737 732 359 0
737 -732 359 0
-737 -732 -359 0
732 -738 0
737 -738 0
-732 -737 738 0
219 -739 0
79 -739 0
-219 -79 739 0
-738 736 0
-739 736 0
738 739 -736 0
80 220 -741 0
-80 220 741 0
80 -220 741 0
-80 -220 -741 0
741 736 -360 0
-741 736 360 0
741 -736 360 0
-741 -736 -360 0
736 -742 0
741 -742 0
-736 -741 742 0
220 -743 0
80 -743 0
-220 -80 743 0
-742 740 0
-743 740 0
742 743 -740 0
81 221 -745 0
-81 221 745 0
81 -221 745 0
-81 -221 -745 0
745 740 -361 0
-745 740 361 0
745 -740 361 0
-745 -740 -361 0
740 -746 0
745 -746 0
-740 -745 746 0
221 -747 0
81 -747 0
-221 -81 747 0
-746 744 0
-747 744 0
746 747 -744 0
82 222 -749 0
-82 222 749 0
82 -222 749 0
-82 -222 -749 0
749 744 -362 0
-749 744 362 0
749 -744 362 0
-749 -744 -362 0
744 -750 0
749 -750 0
-744 -749 750 0
222 -751 0
82 -751 0
-222 -82 751 0
-750 748 0
-751 748 0
750 751 -748 0
83 223 -753 0
-83 223 753 0
83 -223 753 0
-83 -223 -753 0
753 748 -363 0
-753 748 363 0
753 -748 363 0
-753 -748 -363 0
748 -754 0
753 -754 0
-748 -753 754 0
223 -755 0
83 -755 0
-223 -83 755 0
-754 752 0
-755 752 0
754 755 -752 0
84 224 -757 0
-84 224 757 0
84 -224 757 0
-84 -224 -757 0
757 752 -364 0
-757 752 364 0
757 -752 364 0
-757 -752 -364 0
752 -758 0
757 -758 0
-752 -757 758 0
224 -759 0
84 -759 0
-224 -84 759 0
-758 756 0
-759 756 0
758 759 -756 0
85 225 -761 0
-85 225 761 0
85 -225 761 0
-85 -225 -761 0
761 756 -365 0
-761 756 365 0
761 -756 365 0
-761 -756 -365 0
756 -762 0
761 -762 0
-756 -761 762 0
225 -763 0
85 -763 0
-225 -85 763 0
-762 760 0
-763 760 0
762 763 -760 0
86 226 -765 0
-86 226 765 0
86 -226 765 0
-86 -226 -765 0
765 760 -366 0
-765 760 366 0
765 -760 366 0
-765 -760 -366 0
760 -766 0
765 -766 0
-760 -765 766 0
226 -767 0
86 -767 0
-226 -86 767 0
-766 764 0
-767 764 0
766 767 -764 0
87 227 -769 0
-87 227 769 0
87 -227 769 0
-87 -227 -769 0
769 764 -367 0
-769 764 367 0
769 -764 367 0
-769 -764 -367 0
764 -770 0
769 -770 0
-764 -769 770 0
227 -771 0
87 -771 0
-227 -87 771 0
-770 768 0
-771 768 0
770 771 -768 0
88 228 -773 0
-88 228 773 0
88 -228 773 0
-88 -228 -773 0
773 768 -368 0
-773 768 368 0
773 -768 368 0
-773 -768 -368 0
768 -774 0
773 -774 0
-768 -773 774 0
228 -775 0
88 -775 0
-228 -88 775 0
-774 772 0
-775 772 0
774 775 -772 0
89 229 -777 0
-89 229 777 0
89 -229 777 0
-89 -229 -777 0
777 772 -369 0
-777 772 369 0
777 -772 369 0
-777 -772 -369 0
772 -778 0
777 -778 0
-772 -777 778 0
229 -779 0
89 -779 0
-229 -89 779 0
-778 776 0
-779 776 0
778 779 -776 0
90 230 -781 0
-90 230 781 0
90 -230 781 0
-90 -230 -781 0
781 776 -370 0
-781 776 370 0
781 -776 370 0
-781 -776 -370 0
776 -782 0
781 -782 0
-776 -781 782 0
230 -783 0
90 -783 0
-230 -90 783 0
-782 780 0
-783 780 0
782 783 -780 0
91 231 -785 0
-91 231 785 0
91 -231 785 0
-91 -231 -785 0
785 780 -371 0
-785 780 371 0
785 -780 371 0
-785 -780 -371 0
780 -786 0
785 -786 0
-780 -785 786 0
231 -787 0
91 -787 0
-231 -91 787 0
-786 784 0
-787 784 0
786 787 -784 0
92 232 -789 0
-92 232 789 0
92 -232 789 0
-92 -232 -789 0
789 784 -372 0
-789 784 372 0
789 -784 372 0
-789 -784 -372 0
784 -790 0
789 -790 0
-784 -789 790 0
232 -791 0
92 -791 0
-232 -92 791 0
-790 788 0
-791 788 0
790 791 -788 0
93 233 -793 0
-93 233 793 0
93 -233 793 0
-93 -233 -793 0
793 788 -373 0
-793 788 373 0
793 -788 373 0
-793 -788 -373 0
788 -794 0
793 -794 0
-788 -793 794 0
233 -795 0
93 -795 0
-233 -93 795 0
-794 792 0
-795 792 0
794 795 -792 0
94 234 -797 0
-94 234 797 0
94 -234 797 0
-94 -234 -797 0
797 792 -374 0
-797 792 374 0
797 -792 374 0
-797 -792 -374 0
792 -798 0
797 -798 0
-792 -797 798 0
234 -799 0
94 -799 0
-234 -94 799 0
-798 796 0
-799 796 0
798 799 -796 0
95 235 -801 0
-95 235 801 0
95 -235 801 0
-95 -235 -801 0
801 796 -375 0
-801 796 375 0
801 -796 375 0
-801 -796 -375 0
796 -802 0
801 -802 0
-796 -801 802 0
235 -803 0
95 -803 0
-235 -95 803 0
-802 800 0
-803 800 0
802 803 -800 0
96 236 -805 0
-96 236 805 0
96 -236 805 0
-96 -236 -805 0
805 800 -376 0
-805 800 376 0
805 -800 376 0
-805 -800 -376 0
800 -806 0
805 -806 0
-800 -805 806 0
236 -807 0
96 -807 0
-236 -96 807 0
-806 804 0
-807 804 0
806 807 -804 0
97 237 -809 0
-97 237 809 0
97 -237 809 0
-97 -237 -809 0
809 804 -377 0
-809 804 377 0
809 -804 377 0
-809 -804 -377 0
804 -810 0
809 -810 0
-804 -809 810 0
237 -811 0
97 -811 0
-237 -97 811 0
-810 808 0
-811 808 0
810 811 -808 0
98 238 -813 0
-98 238 813 0
98 -238 813 0
-98 -238 -813 0
813 808 -378 0
-813 808 378 0
813 -808 378 0
-813 -808 -378 0
808 -814 0
813 -814 0
-808 -813 814 0
238 -815 0
98 -815 0
-238 -98 815 0
-814 812 0
-815 812 0
814 815 -812 0
99 239 -817 0
-99 239 817 0
99 -239 817 0
-99 -239 -817 0
817 812 -379 0
-817 812 379 0
817 -812 379 0
-817 -812 -379 0
812 -818 0
817 -818 0
-812 -817 818 0
239 -819 0
99 -819 0
-239 -99 819 0
-818 816 0
-819 816 0
818 819 -816 0
100 240 -821 0
-100 240 821 0
100 -240 821 0
-100 -240 -821 0
821 816 -380 0
-821 816 380 0
821 -816 380 0
-821 -816 -380 0
816 -822 0
821 -822 0
-816 -821 822 0
240 -823 0
100 -823 0
-240 -100 823 0
-822 820 0
-823 820 0
822 823 -820 0
101 241 -825 0
-101 241 825 0
101 -241 825 0
-101 -241 -825 0
825 820 -381 0
-825 820 381 0
825 -820 381 0
-825 -820 -381 0
820 -826 0
825 -826 0
-820 -825 826 0
241 -827 0
101 -827 0
-241 -101 827 0
-826 824 0
-827 824 0
826 827 -824 0
102 242 -829 0
-102 242 829 0
102 -242 829 0
-102 -242 -829 0
829 824 -382 0
-829 824 382 0
829 -824 382 0
-829 -824 -382 0
824 -830 0
829 -830 0
-824 -829 830 0
242 -831 0
102 -831 0
-242 -102 831 0
-830 828 0
-831 828 0
830 831 -828 0
103 243 -833 0
-103 243 833 0
103 -243 833 0
-103 -243 -833 0
833 828 -383 0
-833 828 383 0
833 -828 383 0
-833 -828 -383 0
828 -834 0
833 -834 0
-828 -833 834 0
243 -835 0
103 -835 0
-243 -103 835 0
-834 832 0
-835 832 0
834 835 -832 0
104 244 -837 0
-104 244 837 0
104 -244 837 0
-104 -244 -837 0
837 832 -384 0
-837 832 384 0
837 -832 384 0
-837 -832 -384 0
832 -838 0
837 -838 0
-832 -837 838 0
244 -839 0
104 -839 0
-244 -104 839 0
-838 836 0
-839 836 0
838 839 -836 0
105 245 -841 0
-105 245 841 0
105 -245 841 0
-105 -245 -841 0
841 836 -385 0
-841 836 385 0
841 -836 385 0
-841 -836 -385 0
836 -842 0
841 -842 0
-836 -841 842 0
245 -843 0
105 -843 0
-245 -105 843 0
-842 840 0
-843 840 0
842 843 -840 0
106 246 -845 0
-106 246 845 0
106 -246 845 0
-106 -246 -845 0
845 840 -386 0
-845 840 386 0
845 -840 386 0
-845 -840 -386 0
840 -846 0
845 -846 0
-840 -845 846 0
246 -847 0
106 -847 0
-246 -106 847 0
-846 844 0
-847 844 0
846 847 -844 0
107 247 -849 0
-107 247 849 0
107 -247 849 0
-107 -247 -849 0
849 844 -387 0
-849 844 387 0
849 -844 387 0
-849 -844 -387 0
844 -850 0
849 -850 0
-844 -849 850 0
247 -851 0
107 -851 0
-247 -107 851 0
-850 848 0
-851 848 0
850 851 -848 0
108 248 -853 0
-108 248 853 0
108 -248 853 0
-108 -248 -853 0
853 848 -388 0
-853 848 388 0
853 -848 388 0
-853 -848 -388 0
848 -854 0
853 -854 0
-848 -853 854 0
248 -855 0
108 -855 0
-248 -108 855 0
-854 852 0
-855 852 0
854 855 -852 0
109 249 -857 0
-109 249 857 0
109 -249 857 0
-109 -249 -857 0
857 852 -389 0
-857 852 389 0
857 -852 389 0
-857 -852 -389 0
852 -858 0
857 -858 0
-852 -857 858 0
249 -859 0
109 -859 0
-249 -109 859 0
-858 856 0
-859 856 0
858 859 -856 0
110 250 -861 0
-110 250 861 0
110 -250 861 0
-110 -250 -861 0
861 856 -390 0
-861 856 390 0
861 -856 390 0
-861 -856 -390 0
856 -862 0
861 -862 0
-856 -861 862 0
250 -863 0
110 -863 0
-250 -110 863 0
-862 860 0
-863 860 0
862 863 -860 0
111 251 -865 0
-111 251 865 0
111 -251 865 0
-111 -251 -865 0
865 860 -391 0
-865 860 391 0
865 -860 391 0
-865 -860 -391 0
860 -866 0
865 -866 0
-860 -865 866 0
251 -867 0
111 -867 0
-251 -111 867 0
-866 864 0
-867 864 0
866 867 -864 0
112 252 -869 0
-112 252 869 0
112 -252 869 0
-112 -252 -869 0
869 864 -392 0
-869 864 392 0
869 -864 392 0
-869 -864 -392 0
864 -870 0
869 -870 0
-864 -869 870 0
252 -871 0
112 -871 0
-252 -112 871 0
-870 868 0
-871 868 0
870 871 -868 0
113 253 -873 0
-113 253 873 0
113 -253 873 0
-113 -253 -873 0
873 868 -393 0
-873 868 393 0
873 -868 393 0
-873 -868 -393 0
868 -874 0
873 -874 0
-868 -873 874 0
253 -875 0
113 -875 0
-253 -113 875 0
-874 872 0
-875 872 0
874 875 -872 0
114 254 -877 0
-114 254 877 0
114 -254 877 0
-114 -254 -877 0
877 872 -394 0
-877 872 394 0
877 -872 394 0
-877 -872 -394 0
872 -878 0
877 -878 0
-872 -877 878 0
254 -879 0
114 -879 0
-254 -114 879 0
-878 876 0
-879 876 0
878 879 -876 0
115 255 -881 0
-115 255 881 0
115 -255 881 0
-115 -255 -881 0
881 876 -395 0
-881 876 395 0
881 -876 395 0
-881 -876 -395 0
876 -882 0
881 -882 0
-876 -881 882 0
255 -883 0
115 -883 0
-255 -115 883 0
-882 880 0
-883 880 0
882 883 -880 0
116 256 -885 0
-116 256 885 0
116 -256 885 0
-116 -256 -885 0
885 880 -396 0
-885 880 396 0
885 -880 396 0
-885 -880 -396 0
880 -886 0
885 -886 0
-880 -885 886 0
256 -887 0
116 -887 0
-256 -116 887 0
-886 884 0
-887 884 0
886 887 -884 0
117 257 -889 0
-117 257 889 0
117 -257 889 0
-117 -257 -889 0
889 884 -397 0
-889 884 397 0
889 -884 397 0
-889 -884 -397 0
884 -890 0
889 -890 0
-884 -889 890 0
257 -891 0
117 -891 0
-257 -117 891 0
-890 888 0
-891 888 0
890 891 -888 0
118 258 -893 0
-118 258 893 0
118 -258 893 0
-118 -258 -893 0
893 888 -398 0
-893 888 398 0
893 -888 398 0
-893 -888 -398 0
888 -894 0
893 -894 0
-888 -893 894 0
258 -895 0
118 -895 0
-258 -118 895 0
-894 892 0
-895 892 0
894 895 -892 0
119 259 -897 0
-119 259 897 0
119 -259 897 0
-119 -259 -897 0
897 892 -399 0
-897 892 399 0
897 -892 399 0
-897 -892 -399 0
892 -898 0
897 -898 0
-892 -897 898 0
259 -899 0
119 -899 0
-259 -119 899 0
-898 896 0
-899 896 0
898 899 -896 0
120 260 -901 0
-120 260 901 0
120 -260 901 0
-120 -260 -901 0
901 896 -400 0
-901 896 400 0
901 -896 400 0
-901 -896 -400 0
896 -902 0
901 -902 0
-896 -901 902 0
260 -903 0
120 -903 0
-260 -120 903 0
-902 900 0
-903 900 0
902 903 -900 0
121 261 -905 0
-121 261 905 0
121 -261 905 0
-121 -261 -905 0
905 900 -401 0
-905 900 401 0
905 -900 401 0
-905 -900 -401 0
900 -906 0
905 -906 0
-900 -905 906 0
261 -907 0
121 -907 0
-261 -121 907 0
-906 904 0
-907 904 0
906 907 -904 0
122 262 -909 0
-122 262 909 0
122 -262 909 0
-122 -262 -909 0
909 904 -402 0
-909 904 402 0
909 -904 402 0
-909 -904 -402 0
904 -910 0
909 -910 0
-904 -909 910 0
262 -911 0
122 -911 0
-262 -122 911 0
-910 908 0
-911 908 0
910 911 -908 0
123 263 -913 0
-123 263 913 0
123 -263 913 0
-123 -263 -913 0
913 908 -403 0
-913 908 403 0
913 -908 403 0
-913 -908 -403 0
908 -914 0
913 -914 0
-908 -913 914 0
263 -915 0
123 -915 0
-263 -123 915 0
-914 912 0
-915 912 0
914 915 -912 0
124 264 -917 0
-124 264 917 0
124 -264 917 0
-124 -264 -917 0
917 912 -404 0
-917 912 404 0
917 -912 404 0
-917 -912 -404 0
912 -918 0
917 -918 0
-912 -917 918 0
264 -919 0
124 -919 0
-264 -124 919 0
-918 916 0
-919 916 0
918 919 -916 0
125 265 -921 0
-125 265 921 0
125 -265 921 0
-125 -265 -921 0
921 916 -405 0
-921 916 405 0
921 -916 405 0
-921 -916 -405 0
916 -922 0
921 -922 0
-916 -921 922 0
265 -923 0
125 -923 0
-265 -125 923 0
-922 920 0
-923 920 0
922 923 -920 0
126 266 -925 0
-126 266 925 0
126 -266 925 0
-126 -266 -925 0
925 920 -406 0
-925 920 406 0
925 -920 406 0
-925 -920 -406 0
920 -926 0
925 -926 0
-920 -925 926 0
266 -927 0
126 -927 0
-266 -126 927 0
-926 924 0
-927 924 0
926 927 -924 0
127 267 -929 0
-127 267 929 0
127 -267 929 0
-127 -267 -929 0
929 924 -407 0
-929 924 407 0
929 -924 407 0
-929 -924 -407 0
924 -930 0
929 -930 0
-924 -929 930 0
267 -931 0
127 -931 0
-267 -127 931 0
-930 928 0
-931 928 0
930 931 -928 0
128 268 -933 0
-128 268 933 0
128 -268 933 0
-128 -268 -933 0
933 928 -408 0
-933 928 408 0
933 -928 408 0
-933 -928 -408 0
928 -934 0
933 -934 0
-928 -933 934 0
268 -935 0
128 -935 0
-268 -128 935 0
-934 932 0
-935 932 0
934 935 -932 0
129 269 -937 0
-129 269 937 0
129 -269 937 0
-129 -269 -937 0
937 932 -409 0
-937 932 409 0
937 -932 409 0
-937 -932 -409 0
932 -938 0
937 -938 0
-932 -937 938 0
269 -939 0
129 -939 0
-269 -129 939 0
-938 936 0
-939 936 0
938 939 -936 0
130 270 -941 0
-130 270 941 0
130 -270 941 0
-130 -270 -941 0
941 936 -410 0
-941 936 410 0
941 -936 410 0
-941 -936 -410 0
936 -942 0
941 -942 0
-936 -941 942 0
270 -943 0
130 -943 0
-270 -130 943 0
-942 940 0
-943 940 0
942 943 -940 0
131 271 -945 0
-131 271 945 0
131 -271 945 0
-131 -271 -945 0
945 940 -411 0
-945 940 411 0
945 -940 411 0
-945 -940 -411 0
940 -946 0
945 -946 0
-940 -945 946 0
271 -947 0
131 -947 0
-271 -131 947 0
-946 944 0
-947 944 0
946 947 -944 0
132 272 -949 0
-132 272 949 0
132 -272 949 0
-132 -272 -949 0
949 944 -412 0
-949 944 412 0
949 -944 412 0
-949 -944 -412 0
944 -950 0
949 -950 0
-944 -949 950 0
272 -951 0
132 -951 0
-272 -132 951 0
-950 948 0
-951 948 0
950 951 -948 0
133 273 -953 0
-133 273 953 0
133 -273 953 0
-133 -273 -953 0
953 948 -413 0
-953 948 413 0
953 -948 413 0
-953 -948 -413 0
948 -954 0
953 -954 0
-948 -953 954 0
273 -955 0
133 -955 0
-273 -133 955 0
-954 952 0
-955 952 0
954 955 -952 0
134 274 -957 0
-134 274 957 0
134 -274 957 0
-134 -274 -957 0
957 952 -414 0
-957 952 414 0
957 -952 414 0
-957 -952 -414 0
952 -958 0
957 -958 0
-952 -957 958 0
274 -959 0
134 -959 0
-274 -134 959 0
-958 956 0
-959 956 0
958 959 -956 0
135 275 -961 0
-135 275 961 0
135 -275 961 0
-135 -275 -961 0
961 956 -415 0
-961 956 415 0
961 -956 415 0
-961 -956 -415 0
956 -962 0
961 -962 0
-956 -961 962 0
275 -963 0
135 -963 0
-275 -135 963 0
-962 960 0
-963 960 0
962 963 -960 0
136 276 -965 0
-136 276 965 0
136 -276 965 0
-136 -276 -965 0
965 960 -416 0
-965 960 416 0
965 -960 416 0
-965 -960 -416 0
960 -966 0
965 -966 0
-960 -965 966 0
276 -967 0
136 -967 0
-276 -136 967 0
-966 964 0
-967 964 0
966 967 -964 0
137 277 -969 0
-137 277 969 0
137 -277 969 0
-137 -277 -969 0
969 964 -417 0
-969 964 417 0
969 -964 417 0
-969 -964 -417 0
964 -970 0
969 -970 0
-964 -969 970 0
277 -971 0
137 -971 0
-277 -137 971 0
-970 968 0
-971 968 0
970 971 -968 0
138 278 -973 0
-138 278 973 0
138 -278 973 0
-138 -278 -973 0
973 968 -418 0
-973 968 418 0
973 -968 418 0
-973 -968 -418 0
968 -974 0
973 -974 0
-968 -973 974 0
278 -975 0
138 -975 0
-278 -138 975 0
-974 972 0
-975 972 0
974 975 -972 0
139 279 -977 0
-139 279 977 0
139 -279 977 0
-139 -279 -977 0
977 972 -419 0
-977 972 419 0
977 -972 419 0
-977 -972 -419 0
972 -978 0
977 -978 0
-972 -977 978 0
279 -979 0
139 -979 0
-279 -139 979 0
-978 976 0
-979 976 0
978 979 -976 0
140 280 -980 0
-140 280 980 0
140 -280 980 0
-140 -280 -980 0
980 976 -420 0
-980 976 420 0
980 -976 420 0
-980 -976 -420 0
976 -981 0
980 -981 0
-976 -980 981 0
280 -982 0
140 -982 0
-280 -140 982 0
-981 421 0
-982 421 0
981 982 -421 0
